618
298
408
308
417
135
252
143
935
118
108
345
186
326
408
192
238
259
229
177
250
133
404
398
179
214
221
240
570
394
284
461
190
190
298
343
248
138
431
164
336
437
216
98
75
851
145
370
293
404
556
200
83
280
340
102
206
97
270
370
115
150
529
135
77
128
250
236
155
162
182
549
123
152
302
213
131
197
849
151
202
216
280
122
276
210
204
387
338
351
171
130
316
111
188
114
341
162
122
124
